c Result of efficient AIG-to-CNF conversion using package CNF
p cnf 117 379
2 -116 -3 81 -83 0
2 116 -3 81 83 0
-2 3 0
-2 116 -83 0
-2 -81 0
-2 -116 83 0
3 -113 -114 -4 -80 0
3 113 -114 -4 80 0
-3 114 0
-3 113 -80 0
-3 4 0
-3 -113 80 0
4 112 -5 71 77 0
-4 -112 0
-4 -77 0
-4 -71 0
-4 5 0
5 -110 -6 68 -70 0
5 110 -6 68 70 0
-5 6 0
-5 110 -70 0
-5 -68 0
-5 -110 70 0
6 107 -7 65 66 0
6 -107 -7 -65 66 0
-6 -66 0
-6 -107 65 0
-6 7 0
-6 107 -65 0
7 105 -8 61 62 0
7 -105 -8 -61 62 0
-7 -62 0
-7 -105 61 0
-7 8 0
-7 105 -61 0
8 103 -9 56 59 0
8 -103 -9 -56 59 0
-8 -59 0
-8 -103 56 0
-8 9 0
-8 103 -56 0
9 101 10 50 -54 0
9 -101 10 -50 -54 0
-9 54 0
-9 -101 50 0
-9 -10 0
-9 101 -50 0
-10 -100 11 43 -47 0
-10 100 11 43 47 0
10 -11 0
10 100 -47 0
10 -43 0
10 -100 47 0
-11 98 12 38 41 0
-11 -98 12 38 -41 0
11 -12 0
11 -98 41 0
11 -38 0
11 98 -41 0
-12 -96 13 30 -36 0
-12 96 13 30 36 0
12 -13 0
12 96 -36 0
12 -30 0
12 -96 36 0
-13 -94 14 25 -28 0
-13 94 14 25 28 0
13 -14 0
13 94 -28 0
13 -25 0
13 -94 28 0
-14 91 -92 15 -18 0
-14 91 92 15 18 0
-14 -91 -92 -15 -18 0
-14 -91 92 -15 18 0
14 -91 15 0
14 91 -15 0
14 92 -18 0
14 -92 18 0
-15 112 16 0
-15 -112 17 0
15 -112 -17 0
15 112 -16 0
-16 114 0
-16 113 0
-16 110 111 0
16 -110 -113 -114 0
16 -111 -113 -114 0
-17 -113 114 0
-17 113 -114 0
-17 111 114 0
17 -113 -114 0
17 -111 113 114 0
18 -112 23 0
18 -19 21 23 0
-18 -23 0
-18 112 19 0
-18 112 -21 0
-19 111 20 0
-19 -110 111 0
19 -111 0
19 110 -20 0
20 -113 -114 0
-20 113 0
-20 114 0
21 -111 22 0
-21 111 0
-21 -22 0
22 113 -114 0
-22 -113 0
-22 114 0
23 111 -112 0
23 -112 -24 0
-23 112 0
-23 -111 24 0
-24 113 114 0
24 -113 0
24 -114 0
-25 -93 -26 0
-25 93 26 0
25 93 -26 0
25 -93 26 0
26 112 -27 0
-26 -112 0
-26 27 0
27 -111 -113 114 0
27 110 -111 113 -114 0
27 110 111 -113 -114 0
-27 111 114 0
-27 -110 -114 0
-27 113 114 0
-27 111 113 0
-27 -111 -113 -114 0
28 -111 -22 0
28 111 112 -29 0
28 -112 -22 0
-28 -112 22 0
-28 111 112 29 0
-28 -111 22 0
29 -113 114 0
29 113 -114 0
29 110 -113 0
-29 113 114 0
-29 -110 -113 -114 0
-30 -95 -31 0
-30 95 31 0
30 95 -31 0
30 -95 31 0
31 -112 -35 0
31 -111 112 -32 0
-31 112 32 0
-31 -112 35 0
-31 111 112 0
-32 -110 34 0
-32 110 33 0
-32 110 113 0
32 -110 -34 0
32 110 -113 -33 0
33 -114 -115 0
-33 114 0
-33 115 0
-34 113 0
-34 -114 115 0
-34 -114 116 0
34 -113 114 0
34 -113 -115 -116 0
35 -110 -22 0
-35 110 0
-35 22 0
36 -111 112 -37 0
36 -111 -112 -22 0
-36 111 0
-36 -112 22 0
-36 112 37 0
-37 113 0
-37 -114 116 0
37 -113 -116 0
37 -113 114 0
-38 97 39 0
-38 -97 -39 0
38 -97 39 0
38 97 -39 0
-39 112 40 0
-39 -112 113 0
-39 -112 114 0
39 112 -40 0
39 -112 -113 -114 0
-40 113 114 0
-40 110 -113 -114 0
-40 111 -113 -114 0
40 113 -114 0
40 -113 114 0
40 -110 -111 -114 0
-41 -111 112 0
-41 -112 42 0
-41 112 19 0
41 -112 -42 0
41 111 112 -19 0
-42 110 -114 0
-42 -113 114 0
-42 111 114 0
-42 113 -114 0
42 -110 -113 -114 0
42 -111 113 114 0
-43 99 44 0
-43 -99 -44 0
43 -99 44 0
43 99 -44 0
-44 111 0
-44 -112 -45 0
-44 112 46 0
44 -111 112 -46 0
44 -111 -112 45 0
45 113 -114 0
45 -113 114 0
-45 -113 -114 0
-45 113 114 0
46 110 -22 0
-46 -110 0
-46 22 0
47 -112 23 0
47 23 -48 49 0
-47 -23 0
-47 112 -49 0
-47 112 48 0
-48 111 20 0
48 -111 0
48 -20 0
49 -110 -111 0
49 -111 22 0
-49 111 0
-49 110 -22 0
50 -112 -22 0
50 112 -53 0
50 112 -51 0
-50 -112 22 0
-50 112 51 53 0
51 -52 48 0
-51 52 0
-51 -48 0
-52 113 114 0
52 -113 0
52 -114 0
53 -111 -113 0
53 -110 -111 -114 0
-53 111 0
-53 113 114 0
-53 110 113 0
54 -102 55 0
54 102 -55 0
-54 102 55 0
-54 -102 -55 0
-55 110 111 112 24 0
55 -24 0
55 -112 0
55 -110 0
55 -111 0
-56 112 57 0
-56 -112 58 0
56 -112 -58 0
56 112 -57 0
-57 113 114 0
-57 110 111 113 0
57 -113 0
57 -111 -114 0
57 -110 -114 0
-58 -113 114 0
-58 111 114 0
58 -114 0
58 -111 113 0
-59 -104 -60 0
-59 104 60 0
59 104 -60 0
59 -104 60 0
60 -110 -112 24 0
-60 110 0
-60 112 0
-60 -24 0
61 110 -112 24 0
-61 -24 0
-61 112 0
-61 -110 0
-62 -106 -63 0
-62 106 63 0
62 106 -63 0
62 -106 63 0
63 110 111 -112 -64 0
-63 -110 0
-63 64 0
-63 112 0
-63 -111 0
64 -113 114 0
-64 113 0
-64 -114 0
65 -110 111 -112 -64 0
-65 64 0
-65 110 0
-65 112 0
-65 -111 0
-66 -108 -67 0
-66 108 67 0
66 108 -67 0
66 -108 67 0
67 -110 -111 -112 -64 0
-67 64 0
-67 110 0
-67 112 0
-67 111 0
-68 -109 -69 0
-68 109 69 0
68 109 -69 0
68 -109 69 0
69 110 -111 -112 -64 0
-69 -110 0
-69 64 0
-69 112 0
-69 111 0
70 -112 24 0
-70 112 0
-70 -24 0
-71 -111 -72 0
-71 111 72 0
71 111 -72 0
71 -111 72 0
72 -75 76 0
72 -73 -74 76 0
-72 -76 0
-72 73 75 0
-72 74 75 0
-73 113 0
-73 -114 115 0
73 -113 -115 0
73 -113 114 0
74 -110 -111 0
-74 110 0
-74 111 0
-75 -111 112 0
-75 112 64 0
-75 110 112 0
75 -112 0
75 -110 111 -64 0
76 -112 20 0
76 -110 -111 -112 0
-76 112 0
-76 110 -20 0
-76 111 -20 0
77 112 -78 0
-77 -112 0
-77 78 0
78 -110 -111 -79 0
78 -110 111 -64 0
-78 110 0
-78 -111 79 0
-78 111 64 0
79 -115 116 -20 0
-79 115 0
-79 -116 0
-79 20 0
80 -112 76 0
80 -34 -74 76 0
-80 -76 0
-80 112 34 0
-80 112 74 0
-81 -115 -82 0
-81 115 82 0
81 115 -82 0
81 -115 82 0
82 110 111 112 -22 0
82 -110 -111 112 -22 0
-82 -112 0
-82 110 -111 0
-82 22 0
-82 -110 111 0
83 111 112 -35 0
-83 35 0
-83 -112 0
-83 -111 0
-117 0
2 0

